0000000000000000
0000000000000000
0000000000000000
0000000000000000
0011111000000000
0011111000000000
0000011000000000
0000011000000000
0000011000000000
0000011000000000
0000011000000000
0000011000000000
0000011000000000
0000011000000000
0000000000000000
0000000000000000
